p edge 50 117
e 0 19
e 0 24
e 0 32
e 0 33
e 1 10
e 1 28
e 1 33
e 1 35
e 1 39
e 1 41
e 1 43
e 2 16
e 2 22
e 2 33
e 2 43
e 2 45
e 3 6
e 3 16
e 3 23
e 3 39
e 3 40
e 4 23
e 4 25
e 4 35
e 4 39
e 4 47
e 5 24
e 5 31
e 5 37
e 6 7
e 6 25
e 6 36
e 6 43
e 6 45
e 6 46
e 7 9
e 7 11
e 7 19
e 7 23
e 7 43
e 8 14
e 8 17
e 8 19
e 8 20
e 8 41
e 8 46
e 9 12
e 9 23
e 9 46
e 10 12
e 11 17
e 11 33
e 11 47
e 12 13
e 12 27
e 12 28
e 12 35
e 13 21
e 13 28
e 13 40
e 14 16
e 14 17
e 14 26
e 15 19
e 15 23
e 15 33
e 15 40
e 15 42
e 15 47
e 16 17
e 16 25
e 16 34
e 17 27
e 17 31
e 17 38
e 18 19
e 18 31
e 18 37
e 19 38
e 19 44
e 21 29
e 22 38
e 23 25
e 23 42
e 24 37
e 24 38
e 24 43
e 25 29
e 25 40
e 25 46
e 26 40
e 27 40
e 28 37
e 28 40
e 29 33
e 29 35
e 29 37
e 30 32
e 30 34
e 30 39
e 30 48
e 31 34
e 31 46
e 31 49
e 32 34
e 32 48
e 33 39
e 34 36
e 34 41
e 35 42
e 35 46
e 37 41
e 37 49
e 38 40
e 39 47
e 40 46
e 42 48
